rcpsp/heur_output_bi_constraints/Log=5/heurj120.txt
encoding rcpsp/j120.sm/j12010_10.sm nv: 4129986 nc: 8434420 enctime: 78.94
encoding rcpsp/j120.sm/j12010_10.sm nv: 463176 nc: 941770 enctime: 4.68
c File: j12010_10.smnaivebi5.wcnf
c optimal
c final solution cost: 61
c CPU time: 29.170656
s OPTIMUM FOUND

c File: j12010_10.smbi5.wcnf
c optimal
c final solution cost: 61
c CPU time: 2.687381
s OPTIMUM FOUND


rcpsp/heur_output_bi_constraints/Log=5/heurj120.txt
encoding rcpsp/j120.sm/j12010_1.sm nv: 3165652 nc: 6569015 enctime: 66.71
encoding rcpsp/j120.sm/j12010_1.sm nv: 516551 nc: 1067896 enctime: 7.01
c File: j12010_1.smnaivebi5.wcnf
c optimal
c final solution cost: 85
c CPU time: 29.614776
s OPTIMUM FOUND

c File: j12010_1.smbi5.wcnf
c optimal
c final solution cost: 85
c CPU time: 1.458690
s OPTIMUM FOUND


rcpsp/heur_output_bi_constraints/Log=5/heurj120.txt
encoding rcpsp/j120.sm/j12010_2.sm nv: 3511512 nc: 7219191 enctime: 71.08
encoding rcpsp/j120.sm/j12010_2.sm nv: 466034 nc: 954015 enctime: 6.51
c File: j12010_2.smnaivebi5.wcnf
c optimal
c final solution cost: 72
c CPU time: 13.638190
s OPTIMUM FOUND

c File: j12010_2.smbi5.wcnf
c optimal
c final solution cost: 72
c CPU time: 1.217783
s OPTIMUM FOUND


rcpsp/heur_output_bi_constraints/Log=5/heurj120.txt
encoding rcpsp/j120.sm/j12010_3.sm nv: 3265200 nc: 6823845 enctime: 72.17
encoding rcpsp/j120.sm/j12010_3.sm nv: 485245 nc: 1009540 enctime: 6.80
c File: j12010_3.smnaivebi5.wcnf
c optimal
c final solution cost: 84
c CPU time: 45.667382
s OPTIMUM FOUND

c File: j12010_3.smbi5.wcnf
c optimal
c final solution cost: 84
c CPU time: 13.344999
s OPTIMUM FOUND


rcpsp/heur_output_bi_constraints/Log=5/heurj120.txt
encoding rcpsp/j120.sm/j12010_4.sm nv: 3155200 nc: 6565191 enctime: 66.94
encoding rcpsp/j120.sm/j12010_4.sm nv: 464000 nc: 961231 enctime: 6.26
c File: j12010_4.smnaivebi5.wcnf
c optimal
c final solution cost: 86
c CPU time: 14.458697
s OPTIMUM FOUND

c File: j12010_4.smbi5.wcnf
c optimal
c final solution cost: 86
c CPU time: 1.369523
s OPTIMUM FOUND


rcpsp/heur_output_bi_constraints/Log=5/heurj120.txt
encoding rcpsp/j120.sm/j12010_5.sm nv: 3019914 nc: 6250072 enctime: 61.38
encoding rcpsp/j120.sm/j12010_5.sm nv: 534038 nc: 1101584 enctime: 6.88
c File: j12010_5.smnaivebi5.wcnf
c optimal
c final solution cost: 87
c CPU time: 13.440076
s OPTIMUM FOUND

c File: j12010_5.smbi5.wcnf
c optimal
c final solution cost: 87
c CPU time: 1.700242
s OPTIMUM FOUND


rcpsp/heur_output_bi_constraints/Log=5/heurj120.txt
encoding rcpsp/j120.sm/j12010_6.sm nv: 3414048 nc: 7020225 enctime: 68.17
encoding rcpsp/j120.sm/j12010_6.sm nv: 493856 nc: 1011745 enctime: 6.81
c File: j12010_6.smnaivebi5.wcnf
c optimal
c final solution cost: 80
c CPU time: 14.890737
s OPTIMUM FOUND

c File: j12010_6.smbi5.wcnf
c optimal
c final solution cost: 80
c CPU time: 1.459609
s OPTIMUM FOUND


rcpsp/heur_output_bi_constraints/Log=5/heurj120.txt
encoding rcpsp/j120.sm/j12010_7.sm nv: 3545389 nc: 7378047 enctime: 77.86
encoding rcpsp/j120.sm/j12010_7.sm nv: 448721 nc: 929115 enctime: 6.65
c File: j12010_7.smnaivebi5.wcnf
c optimal
c final solution cost: 74
c CPU time: 39.512125
s OPTIMUM FOUND

c File: j12010_7.smbi5.wcnf
c optimal
c final solution cost: 74
c CPU time: 5.320606
s OPTIMUM FOUND


rcpsp/heur_output_bi_constraints/Log=5/heurj120.txt
encoding rcpsp/j120.sm/j12010_8.sm nv: 2872000 nc: 6051005 enctime: 66.61
encoding rcpsp/j120.sm/j12010_8.sm nv: 488000 nc: 1023745 enctime: 7.14
c File: j12010_8.smnaivebi5.wcnf
c timeout
c final solution cost: 86
c CPU time: 69.574550
s UNKNOWN

c File: j12010_8.smbi5.wcnf
c timeout
c final solution cost: 86
c CPU time: 60.823386
s UNKNOWN


rcpsp/heur_output_bi_constraints/Log=5/heurj120.txt
encoding rcpsp/j120.sm/j12010_9.sm nv: 3924848 nc: 8049100 enctime: 78.93
encoding rcpsp/j120.sm/j12010_9.sm nv: 436759 nc: 891609 enctime: 6.50
c File: j12010_9.smnaivebi5.wcnf
c optimal
c final solution cost: 69
c CPU time: 16.142937
s OPTIMUM FOUND

c File: j12010_9.smbi5.wcnf
c optimal
c final solution cost: 69
c CPU time: 1.278180
s OPTIMUM FOUND


rcpsp/heur_output_bi_constraints/Log=5/heurj120.txt
encoding rcpsp/j120.sm/j1201_10.sm nv: 592184 nc: 1436143 enctime: 27.20
encoding rcpsp/j120.sm/j1201_10.sm nv: 121810 nc: 292085 enctime: 2.47
c File: j1201_10.smnaivebi5.wcnf
c timeout
c final solution cost: 98
c CPU time: 65.333804
s UNKNOWN

c File: j1201_10.smbi5.wcnf
c timeout
c final solution cost: 98
c CPU time: 60.345291
s UNKNOWN


rcpsp/heur_output_bi_constraints/Log=5/heurj120.txt
encoding rcpsp/j120.sm/j12011_10.sm nv: 2672423 nc: 5611230 enctime: 63.45
encoding rcpsp/j120.sm/j12011_10.sm nv: 885417 nc: 1855998 enctime: 13.97
c File: j12011_10.smnaivebi5.wcnf
c timeout
c final solution cost: 202
c CPU time: 68.578856
s UNKNOWN

c File: j12011_10.smbi5.wcnf
c timeout
c final solution cost: 196
c CPU time: 61.901009
s UNKNOWN


rcpsp/heur_output_bi_constraints/Log=5/heurj120.txt
encoding rcpsp/j120.sm/j12011_1.sm nv: 2510478 nc: 5258445 enctime: 57.89
encoding rcpsp/j120.sm/j12011_1.sm nv: 820962 nc: 1716681 enctime: 13.00
c File: j12011_1.smnaivebi5.wcnf
c timeout
c final solution cost: 404
c CPU time: 68.582046
s UNKNOWN

c File: j12011_1.smbi5.wcnf
c timeout
c final solution cost: 187
c CPU time: 61.679295
s UNKNOWN


rcpsp/heur_output_bi_constraints/Log=5/heurj120.txt
encoding rcpsp/j120.sm/j12011_2.sm nv: 2314704 nc: 4818936 enctime: 49.90
encoding rcpsp/j120.sm/j12011_2.sm nv: 748992 nc: 1556643 enctime: 11.10
c File: j12011_2.smnaivebi5.wcnf
c timeout
c final solution cost: 212
c CPU time: 67.007720
s UNKNOWN

c File: j12011_2.smbi5.wcnf
c timeout
c final solution cost: 165
c CPU time: 61.495505
s UNKNOWN


rcpsp/heur_output_bi_constraints/Log=5/heurj120.txt
encoding rcpsp/j120.sm/j12011_3.sm nv: 2407912 nc: 5102970 enctime: 57.32
encoding rcpsp/j120.sm/j12011_3.sm nv: 894062 nc: 1891670 enctime: 14.56
c File: j12011_3.smnaivebi5.wcnf
c timeout
c final solution cost: 222
c CPU time: 68.511072
s UNKNOWN

c File: j12011_3.smbi5.wcnf
c timeout
c final solution cost: 220
c CPU time: 61.978059
s UNKNOWN


rcpsp/heur_output_bi_constraints/Log=5/heurj120.txt
encoding rcpsp/j120.sm/j12011_4.sm nv: 2485909 nc: 5247802 enctime: 57.66
encoding rcpsp/j120.sm/j12011_4.sm nv: 916842 nc: 1932427 enctime: 14.34
c File: j12011_4.smnaivebi5.wcnf
c timeout
c final solution cost: 232
c CPU time: 68.430056
s UNKNOWN

c File: j12011_4.smbi5.wcnf
c timeout
c final solution cost: 215
c CPU time: 61.953731
s UNKNOWN


rcpsp/heur_output_bi_constraints/Log=5/heurj120.txt
encoding rcpsp/j120.sm/j12011_5.sm nv: 2418372 nc: 5129809 enctime: 58.01
encoding rcpsp/j120.sm/j12011_5.sm nv: 968058 nc: 2050448 enctime: 15.63
c File: j12011_5.smnaivebi5.wcnf
c timeout
c final solution cost: 253
c CPU time: 68.672325
s UNKNOWN

c File: j12011_5.smbi5.wcnf
c timeout
c final solution cost: 235
c CPU time: 62.175812
s UNKNOWN


rcpsp/heur_output_bi_constraints/Log=5/heurj120.txt
encoding rcpsp/j120.sm/j12011_6.sm nv: 2476275 nc: 5249691 enctime: 62.49
encoding rcpsp/j120.sm/j12011_6.sm nv: 1033890 nc: 2188962 enctime: 16.85
c File: j12011_6.smnaivebi5.wcnf
c timeout
c final solution cost: 495
c CPU time: 69.068601
s UNKNOWN

c File: j12011_6.smbi5.wcnf
c timeout
c final solution cost: 228
c CPU time: 62.357819
s UNKNOWN


rcpsp/heur_output_bi_constraints/Log=5/heurj120.txt
encoding rcpsp/j120.sm/j12011_7.sm nv: 2193558 nc: 4577095 enctime: 49.67
encoding rcpsp/j120.sm/j12011_7.sm nv: 757569 nc: 1578244 enctime: 11.50
c File: j12011_7.smnaivebi5.wcnf
c timeout
c final solution cost: 245
c CPU time: 66.981804
s UNKNOWN

c File: j12011_7.smbi5.wcnf
c timeout
c final solution cost: 173
c CPU time: 61.540062
s UNKNOWN


rcpsp/heur_output_bi_constraints/Log=5/heurj120.txt
encoding rcpsp/j120.sm/j12011_8.sm nv: 2820552 nc: 5895465 enctime: 61.66
encoding rcpsp/j120.sm/j12011_8.sm nv: 908460 nc: 1895807 enctime: 13.93
c File: j12011_8.smnaivebi5.wcnf
c timeout
c final solution cost: 183
c CPU time: 68.934668
s UNKNOWN

c File: j12011_8.smbi5.wcnf
c timeout
c final solution cost: 175
c CPU time: 61.818107
s UNKNOWN


rcpsp/heur_output_bi_constraints/Log=5/heurj120.txt
encoding rcpsp/j120.sm/j12011_9.sm nv: 2846514 nc: 5944268 enctime: 63.95
encoding rcpsp/j120.sm/j12011_9.sm nv: 868428 nc: 1810402 enctime: 13.28
c File: j12011_9.smnaivebi5.wcnf
c timeout
c final solution cost: 451
c CPU time: 68.886059
s UNKNOWN

c File: j12011_9.smbi5.wcnf
c timeout
c CPU time: 61.439750
s UNKNOWN


rcpsp/heur_output_bi_constraints/Log=5/heurj120.txt
encoding rcpsp/j120.sm/j1201_1.sm nv: 631928 nc: 1562212 enctime: 30.42
encoding rcpsp/j120.sm/j1201_1.sm nv: 146630 nc: 358714 enctime: 3.05
c File: j1201_1.smnaivebi5.wcnf
c timeout
c final solution cost: 105
c CPU time: 65.668761
s UNKNOWN

c File: j1201_1.smbi5.wcnf
c timeout
c final solution cost: 103
c CPU time: 60.453572
s UNKNOWN


rcpsp/heur_output_bi_constraints/Log=5/heurj120.txt
encoding rcpsp/j120.sm/j12012_10.sm nv: 4006515 nc: 8307499 enctime: 87.52
encoding rcpsp/j120.sm/j12012_10.sm nv: 949061 nc: 1963941 enctime: 15.10
c File: j12012_10.smnaivebi5.wcnf
c timeout
c final solution cost: 203
c CPU time: 71.093053
s UNKNOWN

c File: j12012_10.smbi5.wcnf
c timeout
c final solution cost: 147
c CPU time: 61.646314
s UNKNOWN


rcpsp/heur_output_bi_constraints/Log=5/heurj120.txt
encoding rcpsp/j120.sm/j12012_1.sm nv: 2932384 nc: 6069602 enctime: 61.76
encoding rcpsp/j120.sm/j12012_1.sm nv: 795795 nc: 1644032 enctime: 12.12
c File: j12012_1.smnaivebi5.wcnf
c timeout
c final solution cost: 149
c CPU time: 68.131635
s UNKNOWN

c File: j12012_1.smbi5.wcnf
c timeout
c final solution cost: 147
c CPU time: 61.466628
s UNKNOWN


rcpsp/heur_output_bi_constraints/Log=5/heurj120.txt
encoding rcpsp/j120.sm/j12012_2.sm nv: 3843988 nc: 7898418 enctime: 78.80
encoding rcpsp/j120.sm/j12012_2.sm nv: 918150 nc: 1883266 enctime: 14.57
c File: j12012_2.smnaivebi5.wcnf
c timeout
c final solution cost: 133
c CPU time: 69.759523
s UNKNOWN

c File: j12012_2.smbi5.wcnf
c timeout
c final solution cost: 122
c CPU time: 61.572577
s UNKNOWN


rcpsp/heur_output_bi_constraints/Log=5/heurj120.txt
encoding rcpsp/j120.sm/j12012_3.sm nv: 3431808 nc: 7100926 enctime: 74.63
encoding rcpsp/j120.sm/j12012_3.sm nv: 847360 nc: 1750006 enctime: 13.61
c File: j12012_3.smnaivebi5.wcnf
c timeout
c final solution cost: 214
c CPU time: 69.403963
s UNKNOWN

c File: j12012_3.smbi5.wcnf
c timeout
c final solution cost: 138
c CPU time: 61.467195
s UNKNOWN


rcpsp/heur_output_bi_constraints/Log=5/heurj120.txt
encoding rcpsp/j120.sm/j12012_4.sm nv: 3429594 nc: 7083293 enctime: 70.18
encoding rcpsp/j120.sm/j12012_4.sm nv: 818118 nc: 1686339 enctime: 10.31
c File: j12012_4.smnaivebi5.wcnf
c timeout
c final solution cost: 226
c CPU time: 69.206415
s UNKNOWN

c File: j12012_4.smbi5.wcnf
c timeout
c final solution cost: 132
c CPU time: 61.357470
s UNKNOWN


rcpsp/heur_output_bi_constraints/Log=5/heurj120.txt
encoding rcpsp/j120.sm/j12012_5.sm nv: 3537837 nc: 7408496 enctime: 76.14
encoding rcpsp/j120.sm/j12012_5.sm nv: 965747 nc: 2018396 enctime: 12.39
c File: j12012_5.smnaivebi5.wcnf
c timeout
c final solution cost: 205
c CPU time: 70.476306
s UNKNOWN

c File: j12012_5.smbi5.wcnf
c timeout
c final solution cost: 175
c CPU time: 61.777765
s UNKNOWN


rcpsp/heur_output_bi_constraints/Log=5/heurj120.txt
encoding rcpsp/j120.sm/j12012_6.sm nv: 3769155 nc: 7785465 enctime: 73.76
encoding rcpsp/j120.sm/j12012_6.sm nv: 915285 nc: 1886965 enctime: 11.30
c File: j12012_6.smnaivebi5.wcnf
c timeout
c final solution cost: 131
c CPU time: 69.993152
s UNKNOWN

c File: j12012_6.smbi5.wcnf
c timeout
c final solution cost: 127
c CPU time: 61.493502
s UNKNOWN


rcpsp/heur_output_bi_constraints/Log=5/heurj120.txt
encoding rcpsp/j120.sm/j12012_7.sm nv: 4223626 nc: 8713048 enctime: 85.35
encoding rcpsp/j120.sm/j12012_7.sm nv: 842248 nc: 1733530 enctime: 11.52
c File: j12012_7.smnaivebi5.wcnf
c timeout
c final solution cost: 127
c CPU time: 71.753320
s UNKNOWN

c File: j12012_7.smbi5.wcnf
c timeout
c final solution cost: 123
c CPU time: 61.492528
s UNKNOWN


rcpsp/heur_output_bi_constraints/Log=5/heurj120.txt
encoding rcpsp/j120.sm/j12012_8.sm nv: 4399440 nc: 9071263 enctime: 92.67
encoding rcpsp/j120.sm/j12012_8.sm nv: 879888 nc: 1810255 enctime: 12.05
c File: j12012_8.smnaivebi5.wcnf
c timeout
c final solution cost: 128
c CPU time: 72.074546
s UNKNOWN

c File: j12012_8.smbi5.wcnf
c timeout
c final solution cost: 127
c CPU time: 61.611508
s UNKNOWN


rcpsp/heur_output_bi_constraints/Log=5/heurj120.txt
encoding rcpsp/j120.sm/j12012_9.sm nv: 3724476 nc: 7639894 enctime: 76.11
encoding rcpsp/j120.sm/j12012_9.sm nv: 755958 nc: 1547332 enctime: 10.25
c File: j12012_9.smnaivebi5.wcnf
c timeout
c final solution cost: 111
c CPU time: 69.736723
s UNKNOWN

c File: j12012_9.smbi5.wcnf
c timeout
c final solution cost: 108
c CPU time: 61.317255
s UNKNOWN


rcpsp/heur_output_bi_constraints/Log=5/heurj120.txt
encoding rcpsp/j120.sm/j1201_2.sm nv: 610850 nc: 1488001 enctime: 29.28
encoding rcpsp/j120.sm/j1201_2.sm nv: 129200 nc: 311254 enctime: 2.73
c File: j1201_2.smnaivebi5.wcnf
c optimal
c final solution cost: 95
c CPU time: 15.554819
s OPTIMUM FOUND

c File: j1201_2.smbi5.wcnf
c optimal
c final solution cost: 95
c CPU time: 5.891028
s OPTIMUM FOUND


rcpsp/heur_output_bi_constraints/Log=5/heurj120.txt
encoding rcpsp/j120.sm/j12013_10.sm nv: 5502092 nc: 11256707 enctime: 109.56
encoding rcpsp/j120.sm/j12013_10.sm nv: 818953 nc: 1671321 enctime: 8.82
c File: j12013_10.smnaivebi5.wcnf
c timeout
c final solution cost: 100
c CPU time: 73.840203
s UNKNOWN

c File: j12013_10.smbi5.wcnf
c timeout
c final solution cost: 98
c CPU time: 61.428495
s UNKNOWN


rcpsp/heur_output_bi_constraints/Log=5/heurj120.txt
encoding rcpsp/j120.sm/j12013_1.sm nv: 4439227 nc: 9147013 enctime: 92.51
encoding rcpsp/j120.sm/j12013_1.sm nv: 902020 nc: 1854646 enctime: 12.31
c File: j12013_1.smnaivebi5.wcnf
c timeout
c final solution cost: 129
c CPU time: 72.155730
s UNKNOWN

c File: j12013_1.smbi5.wcnf
c timeout
c final solution cost: 126
c CPU time: 61.596555
s UNKNOWN


rcpsp/heur_output_bi_constraints/Log=5/heurj120.txt
encoding rcpsp/j120.sm/j12013_2.sm nv: 5654676 nc: 11500266 enctime: 108.64
encoding rcpsp/j120.sm/j12013_2.sm nv: 862427 nc: 1750295 enctime: 12.16
c File: j12013_2.smnaivebi5.wcnf
c timeout
c final solution cost: 86
c CPU time: 73.131420
s UNKNOWN

c File: j12013_2.smbi5.wcnf
c timeout
c final solution cost: 80
c CPU time: 61.382172
s UNKNOWN


rcpsp/heur_output_bi_constraints/Log=5/heurj120.txt
encoding rcpsp/j120.sm/j12013_3.sm nv: 4500287 nc: 9263289 enctime: 92.92
encoding rcpsp/j120.sm/j12013_3.sm nv: 961994 nc: 1976199 enctime: 15.92
c File: j12013_3.smnaivebi5.wcnf
c timeout
c final solution cost: 174
c CPU time: 72.499792
s UNKNOWN

c File: j12013_3.smbi5.wcnf
c timeout
c final solution cost: 120
c CPU time: 61.692749
s UNKNOWN


rcpsp/heur_output_bi_constraints/Log=5/heurj120.txt
encoding rcpsp/j120.sm/j12013_4.sm nv: 4717013 nc: 9686484 enctime: 96.62
encoding rcpsp/j120.sm/j12013_4.sm nv: 979527 nc: 2007610 enctime: 13.14
c File: j12013_4.smnaivebi5.wcnf
c timeout
c final solution cost: 115
c CPU time: 72.354596
s UNKNOWN

c File: j12013_4.smbi5.wcnf
c timeout
c final solution cost: 110
c CPU time: 61.676832
s UNKNOWN


rcpsp/heur_output_bi_constraints/Log=5/heurj120.txt
encoding rcpsp/j120.sm/j12013_5.sm nv: 5463843 nc: 11137425 enctime: 103.27
encoding rcpsp/j120.sm/j12013_5.sm nv: 797335 nc: 1621485 enctime: 11.31
c File: j12013_5.smnaivebi5.wcnf
c timeout
c final solution cost: 86
c CPU time: 72.629357
s UNKNOWN

c File: j12013_5.smbi5.wcnf
c timeout
c final solution cost: 85
c CPU time: 61.264444
s UNKNOWN


rcpsp/heur_output_bi_constraints/Log=5/heurj120.txt
encoding rcpsp/j120.sm/j12013_6.sm nv: 4497350 nc: 9197383 enctime: 86.34
encoding rcpsp/j120.sm/j12013_6.sm nv: 829400 nc: 1692706 enctime: 11.55
c File: j12013_6.smnaivebi5.wcnf
c timeout
c final solution cost: 102
c CPU time: 71.184320
s UNKNOWN

c File: j12013_6.smbi5.wcnf
c timeout
c final solution cost: 101
c CPU time: 61.401040
s UNKNOWN


